(set-logic QF_S)
(declare-fun _var_0xINPUT_277061_() String)
(declare-fun __woorpje_diseq_pref0_() String)
(declare-fun __woorpje_diseq_suf_l0_() String)
(declare-fun __woorpje_diseq_suf_r0_() String)
(declare-fun __woorpje_diseq_pref1_() String)
(declare-fun __woorpje_diseq_suf_l1_() String)
(declare-fun __woorpje_diseq_suf_r1_() String)
(assert (=(str.++  "6JX7G3VKFq" "")(str.++ __woorpje_diseq_pref0_  "6" __woorpje_diseq_suf_l0_  "")) )
(assert (=(str.++ _var_0xINPUT_277061_  "")(str.++ __woorpje_diseq_pref0_  "3" __woorpje_diseq_suf_r0_  "")) )
(assert (=(str.++ _var_0xINPUT_277061_  "")(str.++  "3s71lxYG6e" "")) )
(check-sat)
